5 55 62 72 84 36 37 21 49 31 
78 59 10 11 39 32 52 29 26 
60 8 15 30 64 63 66 43 18 
83 87 40 74 58 77 80 73 71 81 
7 42 95 2 45 100 99 98 89 47 
67 33 50 28 96 94 4 22 69 16 
82 41 35 56 1 88 86 85 91 90 
61 25 27 44 46 57 79 75 3 19 
20 17 53 34 9 6 23 48 51 54 
65 24 70 68 97 12 14 
13 76 92 93 
38 

